param set_len = 18;
param target := 161708583;
param values := [1] 33450101 [2] 23746748 [3] 3028282 [4] 15494999 [5] 5318395 [6] 5191414 [7] 24021703 [8] 24678779 [9] 22419142 [10] 1815654 [11] 28645756 [12] 12563877 [13] 16785313 [14] 15804506 [15] 16546433 [16] 25726728 [17] 1370726 [18] 1541006 ;
